
Gurobi 11.0.0 (linux64) logging started Mon Jul 22 16:45:15 2024

Set parameter LogFile to value "/lustre1/scratch/348/vsc34888/JointResearch/05.Models/06.Benchmarking/M.Random_forest/RTS24_mod2_ByStages_nc150/openStarNet_RTS24_mod2_ByStages_nc150.log"
Set parameter Method to value 2
Set parameter MIPFocus to value 1
Set parameter Presolve to value 2
Set parameter RINS to value 100
Set parameter MIPGap to value 0.01
Set parameter Threads to value 36
Set parameter TimeLimit to value 259200
Set parameter IterationLimit to value 760000000
Gurobi Optimizer version 11.0.0 build v11.0.0rc2 (linux64 - "Rocky Linux 8.9 (Green Obsidian)")

CPU model: Intel(R) Xeon(R) Gold 6240 CPU @ 2.60GHz, instruction set [SSE2|AVX|AVX2|AVX512]
Thread count: 36 physical cores, 36 logical processors, using up to 36 threads

Optimize a model with 53253 rows, 35949 columns and 145154 nonzeros
Model fingerprint: 0x3753d6a4
Variable types: 35928 continuous, 21 integer (21 binary)
Coefficient statistics:
  Matrix range     [1e-03, 5e+02]
  Objective range  [1e+00, 1e+00]
  Bounds range     [4e-05, 3e+00]
  RHS range        [4e-05, 3e+00]
Presolve removed 31706 rows and 18220 columns
Presolve time: 0.20s
Presolved: 21547 rows, 17729 columns, 77797 nonzeros
Variable types: 17708 continuous, 21 integer (21 binary)
Root relaxation presolved: 21547 rows, 17729 columns, 77797 nonzeros

Root barrier log...

Ordering time: 0.01s

Barrier statistics:
 Dense cols : 21
 AA' NZ     : 1.445e+05
 Factor NZ  : 4.138e+05 (roughly 20 MB of memory)
 Factor Ops : 8.485e+06 (less than 1 second per iteration)
 Threads    : 35

                  Objective                Residual
Iter       Primal          Dual         Primal    Dual     Compl     Time
   0   6.53556167e+05 -9.33942141e+07  5.26e+00 9.95e+01  5.20e+03     0s
   1   1.01846578e+05 -2.40931423e+07  6.81e-01 7.37e-09  7.19e+02     0s
   2   4.10573527e+04 -5.13089137e+06  1.69e-01 1.79e-09  1.28e+02     0s
   3   2.06704212e+04 -5.64925129e+05  5.08e-03 4.61e-10  1.18e+01     0s
   4   8.96786527e+03 -8.69151502e+04  6.49e-13 4.39e-11  1.91e+00     0s
   5   2.15793324e+03 -2.41339483e+04  4.85e-13 1.13e-11  5.24e-01     0s
   6   8.11459033e+02 -5.28812245e+03  3.09e-13 2.31e-12  1.21e-01     0s
   7   4.81914949e+02 -1.56377562e+03  1.36e-13 9.09e-13  4.07e-02     0s
   8   2.95604865e+02 -5.54850870e+02  1.05e-13 9.09e-13  1.69e-02     0s
   9   1.91407783e+02 -2.06483328e+02  1.35e-13 9.09e-13  7.92e-03     0s
  10   1.10899223e+02 -1.05527020e+01  4.49e-13 4.55e-13  2.42e-03     0s
  11   7.50819663e+01  3.18543172e+01  6.49e-13 9.09e-13  8.61e-04     0s
  12   6.52839418e+01  3.97355732e+01  5.64e-13 4.55e-13  5.09e-04     0s
  13   5.88531915e+01  4.14211582e+01  2.87e-12 9.09e-13  3.47e-04     0s
  14   5.59774035e+01  4.45112357e+01  6.35e-12 4.55e-13  2.28e-04     0s
  15   5.42965568e+01  4.77266346e+01  1.40e-11 4.55e-13  1.31e-04     0s
  16   5.30810961e+01  4.88108070e+01  6.84e-12 4.55e-13  8.50e-05     0s
  17   5.15222906e+01  4.95999362e+01  6.23e-11 4.55e-13  3.83e-05     0s
  18   5.08426282e+01  5.00234698e+01  3.57e-11 4.55e-13  1.63e-05     1s
  19   5.06499033e+01  5.00515207e+01  3.25e-11 4.55e-13  1.19e-05     1s
  20   5.05974411e+01  5.02140478e+01  4.15e-11 4.55e-13  7.64e-06     1s
  21   5.05644093e+01  5.02537652e+01  1.79e-11 4.55e-13  6.19e-06     1s
  22   5.05042308e+01  5.02635788e+01  2.47e-11 4.55e-13  4.79e-06     1s
  23   5.04695423e+01  5.02982598e+01  4.65e-11 4.55e-13  3.41e-06     1s
  24   5.04518968e+01  5.03387445e+01  2.41e-11 4.55e-13  2.25e-06     1s
  25   5.04413983e+01  5.03665172e+01  2.47e-11 4.55e-13  1.49e-06     1s
  26   5.04307147e+01  5.03895618e+01  2.86e-11 4.55e-13  8.20e-07     1s
  27   5.04300128e+01  5.04059557e+01  3.48e-11 4.55e-13  4.79e-07     1s
  28   5.04294519e+01  5.04064544e+01  2.87e-11 4.55e-13  4.58e-07     1s
  29   5.04270426e+01  5.04096367e+01  1.58e-11 4.55e-13  3.47e-07     1s
  30   5.04265965e+01  5.04195969e+01  5.58e-11 9.09e-13  1.39e-07     1s
  31   5.04261428e+01  5.04229669e+01  5.99e-11 4.55e-13  6.32e-08     1s
  32   5.04260802e+01  5.04244488e+01  6.67e-11 4.55e-13  3.25e-08     1s
  33   5.04260380e+01  5.04252541e+01  2.63e-10 9.09e-13  1.56e-08     1s
  34   5.04260215e+01  5.04256075e+01  3.25e-10 9.09e-13  8.24e-09     1s
  35   5.04260210e+01  5.04256687e+01  7.34e-10 9.09e-13  7.02e-09     1s
  36   5.04260137e+01  5.04259350e+01  2.49e-10 9.09e-13  1.57e-09     1s
  37   5.04260126e+01  5.04259516e+01  4.09e-10 9.09e-13  1.22e-09     1s
  38   5.04260124e+01  5.04259741e+01  4.06e-10 2.93e-12  7.63e-10     1s
  39   5.04260123e+01  5.04260090e+01  1.23e-10 6.40e-12  6.60e-11     1s
  40   5.04260123e+01  5.04260123e+01  1.51e-10 9.09e-13  9.19e-14     1s

Barrier solved model in 40 iterations and 0.71 seconds (0.66 work units)
Optimal objective 5.04260123e+01


Root relaxation: objective 5.042601e+01, 2946 iterations, 0.60 seconds (0.49 work units)

    Nodes    |    Current Node    |     Objective Bounds      |     Work
 Expl Unexpl |  Obj  Depth IntInf | Incumbent    BestBd   Gap | It/Node Time

     0     0   50.42601    0   18          -   50.42601      -     -    1s
H    0     0                     101.1278801   50.42601  50.1%     -    1s
     0     0   51.37801    0    9  101.12788   51.37801  49.2%     -    2s
H    0     0                      97.3221304   51.37801  47.2%     -    2s
H    0     0                      91.4569184   51.44855  43.7%     -    2s
     0     0   51.44855    0   11   91.45692   51.44855  43.7%     -    2s
H    0     0                      88.3950166   51.62441  41.6%     -    3s
     0     0   51.62441    0   13   88.39502   51.62441  41.6%     -    3s
     0     0   51.65342    0   13   88.39502   51.65342  41.6%     -    3s
H    0     0                      82.4423979   51.65505  37.3%     -    3s
     0     0   51.65505    0   13   82.44240   51.65505  37.3%     -    3s
     0     0   51.65505    0   13   82.44240   51.65505  37.3%     -    3s
     0     0   52.19144    0   10   82.44240   52.19144  36.7%     -    4s
     0     0   52.19144    0   10   82.44240   52.19144  36.7%     -    4s
     0     0   52.19144    0   10   82.44240   52.19144  36.7%     -    4s
     0     0   52.19144    0   10   82.44240   52.19144  36.7%     -    4s
     0     0   52.19144    0   10   82.44240   52.19144  36.7%     -    4s
     0     0   52.19144    0   10   82.44240   52.19144  36.7%     -    4s
     0     0   52.19144    0    9   82.44240   52.19144  36.7%     -    5s
     0     0   52.19144    0    9   82.44240   52.19144  36.7%     -    5s
     0     0   52.19144    0    9   82.44240   52.19144  36.7%     -    5s
     0     0   52.19144    0    9   82.44240   52.19144  36.7%     -    6s
H    0     0                      77.0497384   52.19144  32.3%     -    7s
H    0     0                      69.4595233   52.19144  24.9%     -   12s
     0     2   52.19144    0    9   69.45952   52.19144  24.9%     -   12s
    31    60   54.54375    5   14   69.45952   53.54174  22.9%  1041   15s
    99   122   59.84904    7   14   69.45952   55.81168  19.6%  1144   26s
H  110   122                      69.2853222   55.81168  19.4%  1149   26s
H  120   122                      69.2369264   55.81168  19.4%  1154   26s
   296   233   68.03364   10   11   69.23693   55.81168  19.4%   993   30s
   499   250     cutoff    8        69.23693   56.04540  19.1%   897   86s
H  503   250                      69.2366872   56.04540  19.1%   892   86s
   787   266     cutoff   10        69.23669   57.56359  16.9%   800   90s
   959   277   67.69791    9    9   69.23669   57.56359  16.9%   759   95s
  1515   275   64.63167   12    9   69.23669   60.47888  12.6%   661  105s
  2316   169   69.04467   14    7   69.23669   64.87973  6.29%   556  110s

Cutting planes:
  Gomory: 1
  Implied bound: 50
  MIR: 776
  Relax-and-lift: 81

Explored 2938 nodes (1449465 simplex iterations) in 112.90 seconds (137.97 work units)
Thread count was 36 (of 36 available processors)

Solution count 10: 69.2367 69.2369 69.2853 ... 101.128

Optimal solution found (tolerance 1.00e-02)
Best objective 6.923668722193e+01, best bound 6.923668722193e+01, gap 0.0000%

Gurobi 11.0.0 (linux64) logging started Mon Jul 22 16:47:18 2024

Set parameter LogFile to value "/lustre1/scratch/348/vsc34888/JointResearch/05.Models/06.Benchmarking/M.Random_forest/RTS24_mod2_ByStages_nc150/openStarNet_RTS24_mod2_ByStages_nc150.log"
Set parameter Method to value 2
Set parameter MIPFocus to value 1
Set parameter Presolve to value 2
Set parameter RINS to value 100
Set parameter MIPGap to value 0.01
Set parameter Threads to value 36
Set parameter TimeLimit to value 259200
Set parameter IterationLimit to value 760000000
Gurobi Optimizer version 11.0.0 build v11.0.0rc2 (linux64 - "Rocky Linux 8.9 (Green Obsidian)")

CPU model: Intel(R) Xeon(R) Gold 6240 CPU @ 2.60GHz, instruction set [SSE2|AVX|AVX2|AVX512]
Thread count: 36 physical cores, 36 logical processors, using up to 36 threads

Optimize a model with 53253 rows, 35928 columns and 132533 nonzeros
Model fingerprint: 0x9d0e3a51
Coefficient statistics:
  Matrix range     [1e-03, 5e+02]
  Objective range  [1e+00, 1e+00]
  Bounds range     [4e-05, 3e+00]
  RHS range        [4e-05, 2e+01]
Presolve removed 44677 rows and 20335 columns
Presolve time: 0.06s
Presolved: 8576 rows, 15743 columns, 37291 nonzeros

Ordering time: 0.00s

Barrier statistics:
 AA' NZ     : 1.939e+04
 Factor NZ  : 7.685e+04 (roughly 8 MB of memory)
 Factor Ops : 1.087e+06 (less than 1 second per iteration)
 Threads    : 36

                  Objective                Residual
Iter       Primal          Dual         Primal    Dual     Compl     Time
   0   4.57164506e+06 -2.07333343e+07  5.72e+01 6.41e+01  1.73e+04     0s
   1   2.96435504e+05 -1.69294874e+07  3.16e+00 1.52e-12  1.48e+03     0s
   2   5.58888129e+04 -4.24270016e+06  4.51e-01 1.77e-12  2.35e+02     0s
   3   2.65322685e+04 -7.02887477e+05  5.80e-02 1.15e-12  3.14e+01     0s
   4   1.36433825e+04 -2.37801135e+05  8.24e-03 6.82e-13  9.72e+00     0s
   5   5.29952591e+03 -7.18799010e+04  2.88e-04 5.97e-13  2.92e+00     0s
   6   1.57669640e+03 -1.57340181e+04  1.75e-05 4.43e-13  6.54e-01     0s
   7   7.63640386e+02 -3.32975451e+03  4.29e-06 2.27e-13  1.55e-01     0s
   8   4.05537509e+02 -9.90671214e+02  1.04e-06 2.27e-13  5.28e-02     0s
   9   2.52006312e+02 -3.31310235e+02  3.83e-07 2.27e-13  2.20e-02     0s
  10   1.48663350e+02 -1.24926577e+02  1.39e-07 2.27e-13  1.03e-02     0s
  11   1.01874481e+02  3.00673015e+01  4.80e-08 2.27e-13  2.71e-03     0s
  12   7.65417561e+01  6.14542166e+01  8.75e-09 2.27e-13  5.70e-04     0s
  13   7.14113451e+01  6.71770239e+01  2.41e-09 4.55e-13  1.60e-04     0s
  14   7.00980789e+01  6.84301320e+01  9.07e-10 2.27e-13  6.30e-05     0s
  15   6.95387254e+01  6.89837951e+01  3.01e-10 2.27e-13  2.10e-05     0s
  16   6.93214055e+01  6.91415733e+01  8.18e-11 4.55e-13  6.80e-06     0s
  17   6.92540397e+01  6.92181666e+01  1.27e-10 2.27e-13  1.36e-06     0s
  18   6.92380972e+01  6.92350757e+01  5.23e-10 2.27e-13  1.14e-07     0s
  19   6.92368364e+01  6.92363220e+01  4.28e-09 2.27e-13  1.94e-08     0s
  20   6.92366879e+01  6.92366862e+01  2.97e-10 4.55e-13  6.23e-11     0s
  21   6.92366872e+01  6.92366872e+01  1.17e-10 2.27e-13  7.34e-17     0s

Barrier solved model in 21 iterations and 0.19 seconds (0.15 work units)
Optimal objective 6.92366872e+01

Crossover log...

    1894 DPushes remaining with DInf 0.0000000e+00                 0s
       0 DPushes remaining with DInf 0.0000000e+00                 0s

     478 PPushes remaining with PInf 0.0000000e+00                 0s
       0 PPushes remaining with PInf 0.0000000e+00                 0s

  Push phase complete: Pinf 0.0000000e+00, Dinf 1.1594826e-13      0s

Iteration    Objective       Primal Inf.    Dual Inf.      Time
     517    6.9236687e+01   0.000000e+00   0.000000e+00      0s

Use crossover to convert LP symmetric solution to basic solution...
Crossover log...

       0 DPushes remaining with DInf 0.0000000e+00                 0s

     350 PPushes remaining with PInf 0.0000000e+00                 0s
       0 PPushes remaining with PInf 0.0000000e+00                 0s

  Push phase complete: Pinf 0.0000000e+00, Dinf 1.0832062e-13      0s

Iteration    Objective       Primal Inf.    Dual Inf.      Time
     892    6.9236687e+01   0.000000e+00   0.000000e+00      0s

Solved in 892 iterations and 0.27 seconds (0.19 work units)
Optimal objective  6.923668722e+01
